Minimize

10 var_0 + 150 var_1 + 150 var_2 + 100 var_3 + 120 var_4


Subject To

a0: var_0 + var_1 >= 1
a1: var_2 >= 1
a2: var_3 + var_4 >= 1
b0: 10 var_0 + 150 var_1 <= 150
b1: 150 var_2 <= 150
b2: 100 var_3 + 120 var_4 <= 150
c0: 5 var_0 + 4 var_1 + 4 var_2 + 2 var_3 + 5 var_4 - 3 var_0 - 3 var_1 - 3 var_2 - 3 var_3 - 3 var_4 >= 0




Binary

var_0 var_1 var_2 var_3 var_4

 


End
